unsat
(define-fun inv ((s (_ BitVec 4)) (t (_ BitVec 4))) (_ BitVec 4) (bvneg #b0001))
0.08user 0.00system 0:00.08elapsed 100%CPU (0avgtext+0avgdata 27304maxresident)k
0inputs+8outputs (0major+1493minor)pagefaults 0swaps
